c Source: TUDataset MUTAG, graph #128
c Original: n=15, m=17
c Augmented: +6 edges, n=17 -> m=23, circuit_rank=7
c Augmented to satisfy Eulerian condition (no parallel edges)
p sp 17
e 1 2
e 14 15
e 3 4
e 7 8
e 4 5
e 6 7
e 8 11
e 1 10
e 11 13
e 5 6
e 9 10
e 3 15
e 2 3
e 11 12
e 8 9
e 4 9
e 5 14
e 3 16
e 4 16
e 5 9
e 8 17
e 11 17
e 12 13
